p cnf 10 27
-8 5 -9 0
10 0
-10 0
-8 -6 -4 -10 0
9 -9 0
8 9 -10 0
8 -6 3 0
1 -5 -4 -1 0
-7 0
-7 5 -1 0
-4 -3 6 7 0
8 2 -4 5 0
-7 0
8 9 10 -7 0
3 0
1 -4 0
9 0
-6 10 -5 0
-7 10 0
-8 0
-8 10 4 -3 0
-6 0
-6 -5 -9 0
-10 0
-7 0
8 -7 3 -2 0
6 7 0
